c description: Random 3-CNF over 12 variables and 20 clauses
c generator: CNFgen (0.9.3-1)
c copyright: (C) 2012-2022 Massimo Lauria <massimo.lauria@uniroma1.it>
c url: https://massimolauria.net/cnfgen
c command line: cnfgen randkcnf 3 12 20
c
p cnf 12 20
-2 8 12 0
4 -6 10 0
3 4 -10 0
-2 3 12 0
-4 -8 12 0
-3 -4 12 0
1 3 8 0
-4 6 -9 0
1 3 -7 0
-2 -4 -5 0
2 9 12 0
4 7 8 0
6 -10 -11 0
2 -7 8 0
-3 -6 -10 0
-1 2 6 0
7 -10 -11 0
-2 6 11 0
-1 -6 -8 0
-3 5 -6 0
